
List of user-set options:

                                    Name   Value                used
                           compl_inf_tol = 1                     yes
                         constr_viol_tol = 1                     yes
                            dual_inf_tol = 1000                  yes
                           linear_solver = ma97                  yes
                              ma86_small = 1e-30                  no
                                  ma86_u = 0.0001                 no
                              ma97_order = best                  yes
                              ma97_small = 1e-30                 yes
                            ma97_switch1 = at_start              yes
                            ma97_switch2 = od_hd_reuse           yes
                                  ma97_u = 1e-06                 yes
                               ma97_umax = 0.5                   yes
                                max_iter = 1000                  yes
                    max_refinement_steps = 20                    yes
                    min_refinement_steps = 5                     yes
                                 mu_init = 1e-06                 yes
           mu_superlinear_decrease_power = 1.25                  yes
                   nlp_scaling_min_value = 1e-08                 yes
                        option_file_name = Preset_Case:_797_NCP.opt  yes
                             output_file = ./tmp/Preset_Case:_797_NCP.output  yes
                      print_user_options = yes                   yes
        required_infeasibility_reduction = 1                      no
                                     tol = 1e-08                 yes
                   warm_start_bound_frac = 1e-20                 yes
                   warm_start_bound_push = 1e-20                 yes
                   warm_start_init_point = yes                   yes
              warm_start_mult_bound_push = 1e-20                 yes
                warm_start_mult_init_max = 1e+40                 yes
             warm_start_slack_bound_frac = 1e-20                 yes
             warm_start_slack_bound_push = 1e-20                 yes

******************************************************************************
This program contains Ipopt, a library for large-scale nonlinear optimization.
 Ipopt is released as open source code under the Eclipse Public License (EPL).
         For more information visit http://projects.coin-or.org/Ipopt
******************************************************************************

This is Ipopt version 3.12.10, running with linear solver ma97.

Number of nonzeros in equality constraint Jacobian...:   117167
Number of nonzeros in inequality constraint Jacobian.:      213
Number of nonzeros in Lagrangian Hessian.............:    47513

Total number of variables............................:    29977
                     variables with only lower bounds:    11312
                variables with lower and upper bounds:    15135
                     variables with only upper bounds:        0
Total number of equality constraints.................:    29864
Total number of inequality constraints...............:       25
        inequality constraints with only lower bounds:        4
   inequality constraints with lower and upper bounds:        0
        inequality constraints with only upper bounds:       21

iter    objective    inf_pr   inf_du lg(mu)  ||d||  lg(rg) alpha_du alpha_pr  ls
   0 -1.8062830e-01 2.39e-01 2.00e+00  -6.0 0.00e+00    -  0.00e+00 0.00e+00   0
In iteration 0, 9 Slacks too small, adjusting variable bounds
   1 -1.8062830e-01 2.39e-01 6.13e+02  -6.0 1.11e+10    -  6.12e-14 3.66e-19h  1
   2 -1.8062823e-01 2.38e-01 1.14e+03  -6.0 3.86e+01    -  1.00e-02 8.79e-06f  1
   3 -1.8062769e-01 2.38e-01 1.01e+03  -6.0 2.78e+01    -  2.67e-02 4.34e-05h  1
   4 -1.8011311e-01 2.29e-01 1.49e+03  -6.0 2.76e+01    -  1.43e-02 3.98e-02h  1
   5 -1.7952577e-01 2.17e-01 1.42e+03  -6.0 4.98e+01    -  3.27e-02 5.17e-02h  1
   6r-1.7952577e-01 2.17e-01 9.99e+02  -0.7 0.00e+00    -  0.00e+00 2.86e-07R  2
   7r-1.7954477e-01 2.17e-01 2.14e+03  -0.7 4.37e+05    -  6.38e-07 8.74e-07f  1
   8 -1.7949344e-01 2.16e-01 4.29e+06  -6.0 1.46e+01    -  4.76e-02 4.20e-03h  1
   9 -1.7944109e-01 2.15e-01 4.41e+06  -6.0 1.45e+01    -  4.21e-03 4.33e-03h  1
iter    objective    inf_pr   inf_du lg(mu)  ||d||  lg(rg) alpha_du alpha_pr  ls
  10 -1.7909792e-01 2.13e-01 4.37e+06  -6.0 7.64e+01    -  2.35e-03 8.61e-03h  1
  11 -1.7903773e-01 2.12e-01 4.35e+06  -6.0 3.81e+01    -  2.58e-02 6.27e-03h  1
  12 -1.7803848e-01 1.90e-01 3.90e+06  -6.0 3.81e+01    -  6.22e-03 1.03e-01h  1
  13 -1.7767981e-01 1.83e-01 3.75e+06  -6.0 3.61e+01    -  2.21e-02 3.95e-02h  1
  14 -1.7689103e-01 1.68e-01 3.45e+06  -6.0 3.53e+01    -  7.96e-02 7.90e-02h  2
  15 -1.7632604e-01 1.56e-01 3.19e+06  -6.0 3.29e+01    -  9.13e-02 7.59e-02h  2
  16 -1.7559688e-01 1.38e-01 2.84e+06  -6.0 3.02e+01    -  7.93e-02 1.11e-01h  2
  17 -1.7518532e-01 1.27e-01 2.61e+06  -6.0 2.74e+01    -  2.23e-01 7.95e-02h  3
  18 -1.7475602e-01 1.15e-01 2.37e+06  -6.0 2.51e+01    -  2.62e-02 9.37e-02h  3
  19 -1.7423211e-01 1.05e-01 2.16e+06  -6.0 2.41e+01    -  2.84e-01 8.83e-02h  3
iter    objective    inf_pr   inf_du lg(mu)  ||d||  lg(rg) alpha_du alpha_pr  ls
  20 -1.7378866e-01 9.52e-02 1.95e+06  -6.0 2.30e+01    -  2.78e-02 9.49e-02h  3
  21 -1.7358653e-01 9.03e-02 1.85e+06  -6.0 2.20e+01    -  1.19e-01 5.22e-02h  4
  22 -1.7335432e-01 8.43e-02 1.73e+06  -6.0 2.81e+01    -  5.11e-02 6.55e-02h  4
  23 -1.7316637e-01 7.86e-02 1.61e+06  -6.0 3.00e+01    -  3.79e-01 6.79e-02h  4
  24 -1.7214418e-01 7.45e-01 1.18e+06  -6.0 3.89e+01    -  2.30e-01 2.65e-01w  1
  25 -1.7083700e-01 3.96e-01 5.15e+05  -6.0 1.57e+01    -  4.63e-01 5.65e-01w  1
  26 -1.6956885e-01 8.41e-01 3.32e+05  -6.0 9.60e+00    -  3.12e-01 1.00e+00w  1
  27 -1.7214439e-01 1.79e-02 1.26e+06  -6.0 4.14e+00    -  4.03e-01 1.00e+00h  1
  28 -1.7254037e-01 1.66e-02 1.49e+06  -6.0 1.18e+01    -  3.25e-01 1.17e-01h  1
  29r-1.7254037e-01 1.66e-02 1.00e+03  -2.2 0.00e+00    -  0.00e+00 4.87e-07R  2
iter    objective    inf_pr   inf_du lg(mu)  ||d||  lg(rg) alpha_du alpha_pr  ls
  30r-1.7240538e-01 1.27e-02 1.00e+03  -2.2 6.10e+02    -  3.19e-04 2.97e-04f  1
  31 -1.7259076e-01 4.28e-04 8.80e+07  -6.0 4.41e-01    -  7.74e-02 9.66e-01h  1
  32 -1.7259995e-01 3.80e-04 8.50e+07  -6.0 1.96e-01    -  9.67e-01 1.11e-01h  1
  33 -1.7412865e-01 5.04e-03 9.22e+02  -6.0 3.94e+00    -  3.60e-01 1.00e+00f  1
  34 -1.7693428e-01 1.27e-02 8.61e+01  -6.0 7.31e+00    -  2.52e-01 1.00e+00h  1
  35 -1.7911645e-01 2.52e-02 3.12e+01  -6.0 5.63e+00    -  5.60e-01 1.00e+00h  1
  36 -1.8122684e-01 9.22e-02 1.47e+01  -6.0 5.81e+00    -  5.42e-01 9.28e-01h  1
  37 -1.8203908e-01 7.25e-02 5.47e+01  -6.0 8.36e+00    -  6.07e-01 3.60e-01f  1
  38 -1.8365420e-01 1.35e-01 2.88e+01  -6.0 1.81e+01    -  5.16e-01 3.12e-01h  1
  39 -1.8534614e-01 1.99e-01 1.61e+01  -6.0 3.80e+01    -  5.95e-01 2.24e-01h  1
iter    objective    inf_pr   inf_du lg(mu)  ||d||  lg(rg) alpha_du alpha_pr  ls
  40 -1.8943962e-01 1.36e+00 2.28e+01  -6.0 1.23e+02    -  5.21e-01 4.20e-01h  1
  41 -1.8954839e-01 3.03e-01 3.50e+01  -6.0 6.59e-01  -4.0 5.75e-01 7.79e-01h  1
  42 -1.8958723e-01 2.54e-01 2.92e+01  -6.0 1.54e+00  -4.5 6.31e-04 1.63e-01h  1
  43 -1.8971554e-01 2.07e-01 4.32e+01  -6.0 4.15e+00  -5.0 9.88e-01 1.85e-01f  1
  44 -1.9041299e-01 1.53e-01 2.37e+01  -6.0 1.14e+01  -5.4 1.00e+00 3.91e-01h  1
  45 -1.9160391e-01 4.82e-01 2.38e+01  -6.0 2.19e+01  -5.9 1.00e+00 3.91e-01h  1
  46 -1.9176639e-01 5.18e-01 8.47e+01  -6.0 2.93e+01  -6.4 1.00e+00 4.77e-02h  1
  47 -1.9263532e-01 6.11e+00 7.02e+01  -6.0 1.40e+02  -6.9 2.09e-01 1.58e-01h  1
  48 -1.9270332e-01 6.09e+00 1.06e+02  -6.0 6.65e+02  -7.3 3.11e-01 3.73e-03h  1
  49 -1.9269377e-01 6.09e+00 8.15e+01  -6.0 2.88e+02  -6.9 1.69e-02 7.44e-04h  4
iter    objective    inf_pr   inf_du lg(mu)  ||d||  lg(rg) alpha_du alpha_pr  ls
  50 -1.9300532e-01 5.99e+00 1.17e+02  -6.0 5.57e+02  -7.4 1.00e+00 2.68e-02h  1
  51 -1.9534403e-01 4.26e+00 3.30e+00  -6.0 1.38e+02  -7.0 1.00e+00 7.11e-01h  1
  52 -1.9593933e-01 3.11e+00 9.27e+00  -6.0 1.66e+02  -7.4 1.26e-01 1.00e+00h  1
  53 -1.9917816e-01 9.78e-01 4.31e+00  -6.0 1.15e+02  -7.0 4.71e-01 1.00e+00h  1
  54 -2.0119288e-01 1.33e+00 6.77e+00  -6.0 4.32e+03  -7.5 4.86e-02 1.72e-02h  1
  55 -2.0291603e-01 2.10e+00 1.99e+01  -6.0 4.32e+02  -7.1 5.78e-01 1.00e-01h  1
  56 -2.0363669e-01 1.82e+00 7.80e+00  -6.0 1.13e+02  -6.6 1.00e+00 1.26e-01h  1
  57 -2.1400771e-01 1.59e+01 3.60e+01  -6.0 9.74e+03  -7.1 1.64e-02 2.18e-02h  1
  58 -2.1464606e-01 1.40e+01 3.55e+01  -6.0 3.10e+02  -7.6 1.26e-01 1.70e-01h  1
  59 -2.1614404e-01 1.05e+01 2.19e+01  -6.0 4.60e+02  -8.1 6.05e-01 2.47e-01h  1
iter    objective    inf_pr   inf_du lg(mu)  ||d||  lg(rg) alpha_du alpha_pr  ls
  60 -2.1890271e-01 1.04e+01 2.70e+01  -6.0 5.63e+02  -6.7 1.44e-03 1.17e-01h  1
  61 -2.2216683e-01 1.08e+01 3.15e+01  -6.0 2.13e+03  -7.2 3.96e-02 3.96e-02h  1
  62 -2.2259230e-01 1.08e+01 3.04e+01  -6.0 3.79e+03  -7.7 6.23e-03 2.69e-03h  1
  63 -2.2543401e-01 8.68e+00 4.67e+01  -6.0 5.59e+03  -8.2 7.84e-03 6.22e-02h  1
  64 -2.2580052e-01 8.53e+00 1.58e+01  -6.0 1.19e+03  -7.7 2.05e-01 1.54e-02h  1
  65 -2.2827389e-01 6.70e+00 4.29e+01  -6.0 2.55e+02  -7.3 3.08e-01 2.22e-01h  1
  66 -2.2853586e-01 6.55e+00 4.94e+01  -6.0 6.14e+02  -7.8 1.93e-01 2.33e-02h  1
  67 -2.2962750e-01 5.72e+00 1.47e+02  -6.0 1.23e+02  -7.4 5.53e-01 1.49e-01h  1
  68 -2.3020968e-01 4.84e+00 1.24e+02  -6.0 5.21e+02  -7.9 1.61e-01 1.58e-01h  1
  69 -2.3146895e-01 4.59e+00 3.92e+02  -6.0 6.77e+03  -8.3 8.31e-02 3.70e-02h  1
iter    objective    inf_pr   inf_du lg(mu)  ||d||  lg(rg) alpha_du alpha_pr  ls
  70 -2.3193112e-01 4.53e+00 3.76e+02  -6.0 3.46e+03  -8.8 4.53e-02 1.27e-02h  1
  71 -2.3188317e-01 3.50e+00 4.14e+03  -6.0 5.60e+02  -8.4 1.70e-06 2.04e-01h  1
  72 -2.3192614e-01 3.46e+00 4.09e+03  -6.0 2.78e+01  -4.3 2.03e-02 1.29e-02h  1
  73 -2.3191844e-01 3.44e+00 4.07e+03  -6.0 5.72e+01  -4.8 4.74e-03 5.04e-03h  1
  74 -2.3184733e-01 3.44e+00 4.17e+03  -6.0 5.72e+02  -5.3 2.52e-04 1.51e-03h  1
  75 -2.3183351e-01 2.89e+00 3.53e+03  -6.0 6.98e+00  -4.0 1.59e-02 1.60e-01f  1
  76 -2.3184802e-01 2.24e+00 2.76e+03  -6.0 5.55e+00  -4.4 5.40e-02 2.24e-01h  1
  77 -2.3267673e-01 1.35e-01 5.00e+02  -6.0 5.50e+00  -4.9 2.15e-01 9.53e-01f  1
  78 -2.3273559e-01 1.33e-01 4.99e+02  -6.0 1.07e+01  -5.4 2.37e-02 1.22e-02h  1
  79 -2.3278263e-01 1.32e-01 6.10e+02  -6.0 1.47e+01  -5.9 1.21e-01 1.33e-02h  1
iter    objective    inf_pr   inf_du lg(mu)  ||d||  lg(rg) alpha_du alpha_pr  ls
  80 -2.3327581e-01 1.22e-01 7.16e+02  -6.0 2.11e+01  -6.4 1.95e-01 1.08e-01f  1
  81 -2.3356754e-01 1.16e-01 6.32e+02  -6.0 9.37e+00  -5.9 1.79e-01 1.68e-01h  1
  82 -2.3479996e-01 1.73e-01 6.10e+02  -6.0 3.01e+01  -6.4 1.00e+00 5.83e-01f  1
  83 -2.3576080e-01 2.58e-01 4.44e+02  -6.0 6.69e+01  -6.9 3.05e-01 5.04e-01h  1
  84 -2.3639289e-01 1.48e-01 1.34e+02  -6.0 7.13e+01  -7.4 6.92e-01 3.68e-01h  1
  85 -2.3830286e-01 4.94e-01 1.18e+01  -6.0 1.72e+02  -7.8 1.00e+00 6.41e-01h  1
  86 -2.4208109e-01 1.83e+00 6.87e+00  -6.0 3.20e+02  -8.3 5.32e-01 9.79e-01h  1
  87 -2.4307034e-01 1.36e+00 4.51e+00  -6.0 4.82e+02  -8.8 3.36e-01 2.99e-01h  1
  88 -2.4500034e-01 5.08e+00 1.11e+01  -6.0 1.38e+03  -9.3 5.03e-01 3.34e-01h  1
  89 -2.4507697e-01 4.82e+00 1.59e+01  -6.0 4.62e+02  -8.8 3.58e-01 5.09e-02h  1
iter    objective    inf_pr   inf_du lg(mu)  ||d||  lg(rg) alpha_du alpha_pr  ls
  90 -2.4692122e-01 2.24e+00 1.63e+01  -6.0 1.07e+03  -9.3 1.00e+00 5.40e-01h  1
  91 -2.4791650e-01 1.89e+00 7.16e+00  -6.0 4.33e+02  -8.9 1.00e+00 1.00e+00h  1
  92 -2.4842144e-01 5.35e+00 6.81e+00  -6.0 2.95e+03  -9.4 1.04e-01 1.29e-01h  1
  93 -2.4877123e-01 3.64e+00 1.09e+01  -6.0 4.59e+02  -8.9 4.32e-01 3.60e-01h  1
  94 -2.5110435e-01 1.64e+01 4.14e+01  -6.0 1.25e+03  -9.4 6.10e-01 7.27e-01h  1
  95 -2.5189763e-01 1.14e+01 2.76e+02  -6.0 5.99e+02  -9.0 7.09e-02 3.69e-01h  1
  96 -2.5338287e-01 1.82e+01 3.61e+02  -6.0 5.27e+03  -9.5 6.64e-02 1.17e-01h  1
  97 -2.5367460e-01 1.64e+01 4.20e+02  -6.0 3.47e+03  -9.9 4.25e-02 1.02e-01h  1
  98 -2.5429450e-01 1.72e+01 2.68e+02  -6.0 8.79e+03  -9.5 5.74e-02 2.67e-02h  1
  99 -2.5462889e-01 1.71e+01 1.30e+02  -6.0 5.51e+03 -10.0 8.04e-02 3.33e-02h  1
iter    objective    inf_pr   inf_du lg(mu)  ||d||  lg(rg) alpha_du alpha_pr  ls
 100 -2.5506919e-01 1.73e+01 1.28e+02  -6.0 1.70e+04 -10.5 2.48e-02 2.59e-02h  1
 101 -2.5552984e-01 1.73e+01 1.38e+02  -6.0 5.33e+03 -11.0 7.22e-02 8.65e-02h  1
 102 -2.5610887e-01 4.73e+01 1.93e+02  -6.0 1.74e+04    -  6.04e-02 1.06e-01h  1
 103 -2.5646791e-01 4.80e+01 1.78e+03  -6.0 1.53e+04 -11.4 2.77e-02 1.03e-01h  1
 104 -2.5648205e-01 4.79e+01 1.79e+03  -6.0 3.63e+02  -6.5 1.01e-02 3.24e-03h  1
 105 -2.5648862e-01 4.77e+01 1.78e+03  -6.0 3.84e+02  -6.1 3.62e-04 4.04e-03h  1
 106 -2.5658523e-01 3.10e+01 1.21e+03  -6.0 1.68e+01  -6.5 7.40e-02 3.49e-01h  1
 107 -2.5663773e-01 1.92e+01 7.45e+02  -6.0 1.03e+01  -6.1 3.65e-01 3.81e-01h  1
 108 -2.5673052e-01 4.59e-03 1.01e+02  -6.0 6.73e+00  -6.6 6.84e-01 1.00e+00h  1
 109 -2.5677134e-01 2.48e-03 8.38e+00  -6.0 1.30e+01  -7.1 3.28e-01 7.37e-01h  1
iter    objective    inf_pr   inf_du lg(mu)  ||d||  lg(rg) alpha_du alpha_pr  ls
 110 -2.5681406e-01 7.50e-02 5.12e+00  -6.0 3.85e+01  -7.5 8.30e-01 1.00e+00f  1
 111 -2.5687478e-01 1.27e-01 4.15e+00  -6.0 1.15e+02  -8.0 1.94e-01 1.98e-01h  1
 112 -2.5686470e-01 1.01e-01 3.65e+01  -6.0 4.31e+01  -7.6 9.12e-01 5.95e-01f  1
 113 -2.5710995e-01 4.38e-01 7.81e+00  -6.0 1.28e+02  -8.1 6.74e-01 1.00e+00h  1
 114 -2.5726056e-01 7.54e-01 1.25e+02  -6.0 2.75e+02  -8.6 3.15e-01 2.67e-01h  1
 115 -2.5803616e-01 2.11e+01 1.12e+02  -6.0 1.32e+04    -  6.48e-02 9.70e-02h  1
 116 -2.5809878e-01 2.01e+01 4.17e+02  -6.0 5.63e+02  -9.0 1.08e-01 5.12e-02h  1
 117 -2.5880217e-01 1.27e+01 8.07e+02  -6.0 1.35e+03  -9.5 1.69e-03 3.65e-01h  1
 118 -2.5892617e-01 8.59e+00 3.88e+03  -6.0 5.13e+02  -9.1 5.49e-02 3.25e-01h  1
 119 -2.5919542e-01 7.61e+00 3.60e+03  -6.0 1.43e+02  -7.7 1.72e-01 1.14e-01h  1
iter    objective    inf_pr   inf_du lg(mu)  ||d||  lg(rg) alpha_du alpha_pr  ls
 120 -2.6126202e-01 2.06e+01 2.82e+03  -6.0 4.97e+03    -  2.00e-02 3.73e-01h  1
 121 -2.6095377e-01 6.88e+00 1.41e+03  -6.0 6.11e+01  -8.2 4.66e-02 6.66e-01f  1
 122 -2.6106135e-01 4.35e+00 4.54e+02  -6.0 1.11e+01  -6.0 6.46e-01 6.90e-01h  1
 123 -2.6101993e-01 5.90e-01 1.64e+02  -6.0 1.91e+00  -5.6 5.63e-01 8.10e-01h  1
 124 -2.6096888e-01 1.50e-01 7.48e+00  -6.0 1.55e+00  -6.0 1.00e+00 1.00e+00h  1
 125 -2.6091240e-01 2.25e-01 1.06e+01  -6.0 1.90e+00  -6.5 1.00e+00 1.00e+00h  1
 126 -2.6086223e-01 1.90e-01 5.66e+00  -6.0 3.26e+00  -7.0 1.00e+00 1.00e+00h  1
 127 -2.6084233e-01 3.67e-02 9.75e-01  -6.0 9.75e+00  -7.5 1.00e+00 1.00e+00h  1
 128 -2.6084761e-01 1.47e-02 9.86e-03  -6.0 2.96e+01  -8.0 1.00e+00 1.00e+00h  1
 129 -2.6087305e-01 1.42e-01 7.51e-01  -6.0 9.20e+01  -8.4 1.00e+00 1.00e+00h  1
iter    objective    inf_pr   inf_du lg(mu)  ||d||  lg(rg) alpha_du alpha_pr  ls
 130 -2.6092911e-01 1.60e+00 9.29e+00  -6.0 3.08e+02  -8.9 1.00e+00 1.00e+00h  1
 131 -2.6109079e-01 2.93e+01 2.20e+02  -6.0 1.31e+03  -9.4 3.77e-01 1.00e+00h  1
 132 -2.6119842e-01 4.85e-01 1.19e+02  -6.0 2.39e+02  -9.9 3.21e-01 1.00e+00h  1
 133 -2.6120224e-01 4.68e-01 1.10e+02  -6.0 2.36e+03    -  1.00e+00 9.90e-02h  1
 134 -2.6117522e-01 2.39e+00 3.30e+01  -6.0 2.36e+03    -  1.00e+00 7.00e-01h  1
 135 -2.6116876e-01 2.16e+00 2.72e+01  -6.0 7.33e+02    -  2.60e-01 1.75e-01h  1
 136 -2.6116073e-01 1.77e+00 4.09e+01  -6.0 1.99e+03    -  1.00e+00 1.80e-01h  3
 137 -2.6118794e-01 2.80e+00 2.11e+01  -6.0 6.19e+02 -10.3 3.84e-01 1.00e+00h  1
 138 -2.6121419e-01 3.67e+00 2.04e+01  -6.0 7.09e+03 -10.8 9.77e-02 3.19e-02h  2
 139 -2.6123746e-01 3.79e+00 1.77e+01  -6.0 9.21e+02    -  1.74e-01 1.29e-01h  1
iter    objective    inf_pr   inf_du lg(mu)  ||d||  lg(rg) alpha_du alpha_pr  ls
 140 -2.6122911e-01 1.85e+00 7.46e+00  -6.0 1.19e+02  -9.5 5.76e-01 5.35e-01h  1
 141 -2.6123008e-01 1.83e+00 8.81e+01  -6.0 2.25e+04    -  5.67e-02 1.02e-02h  2
 142 -2.6124279e-01 7.37e-01 3.66e-01  -6.0 2.09e+02 -10.0 1.00e+00 1.00e+00h  1
 143 -2.6124772e-01 6.67e-01 5.38e+01  -6.0 1.15e+03 -10.4 8.25e-01 1.18e-01h  2
 144 -2.6126891e-01 1.10e-02 1.27e-02  -6.0 2.58e+01  -9.1 1.00e+00 1.00e+00h  1
 145 -2.6126408e-01 1.16e-01 4.44e-02  -6.0 8.24e+01  -9.6 1.00e+00 1.00e+00h  1
 146 -2.6126777e-01 6.70e-01 1.55e-01  -6.0 1.98e+02 -10.1 1.00e+00 1.00e+00h  1
 147 -2.6126380e-01 4.51e-02 6.12e-03  -6.0 5.23e+01  -9.6 1.00e+00 1.00e+00h  1
 148 -2.6126087e-01 3.81e-01 1.61e-01  -6.0 1.49e+02 -10.1 1.00e+00 1.00e+00h  1
 149 -2.6125726e-01 1.19e-01 6.80e-02  -6.0 8.26e+01  -9.7 1.00e+00 1.00e+00h  1
iter    objective    inf_pr   inf_du lg(mu)  ||d||  lg(rg) alpha_du alpha_pr  ls
 150 -2.6126391e-01 7.11e-02 1.01e+00  -6.0 9.83e+02 -10.2 1.00e+00 1.00e+00H  1
 151 -2.6124562e-01 1.71e+00 1.72e+00  -6.0 5.92e+02  -9.7 9.33e-01 1.00e+00H  1
 152 -2.6126584e-01 1.20e+00 3.00e+01  -6.0 1.41e+03    -  4.87e-01 1.00e+00H  1
 153 -2.6124940e-01 2.48e-01 2.39e-01  -6.0 8.60e+01    -  1.00e+00 1.00e+00h  1
 154 -2.6125209e-01 2.49e-02 9.45e-03  -6.0 3.70e+01    -  1.00e+00 1.00e+00h  1
 155 -2.6125196e-01 4.66e-04 8.88e-05  -6.0 5.02e+00    -  1.00e+00 1.00e+00h  1
 156 -2.6125195e-01 2.15e-08 1.17e-08  -6.0 3.48e-02    -  1.00e+00 1.00e+00h  1
 157 -2.6179697e-01 1.91e+00 2.67e+01  -7.5 2.65e+03    -  1.98e-01 2.50e-01f  1
 158 -2.6186622e-01 1.86e+00 5.86e+01  -7.5 2.47e+03    -  3.68e-01 4.88e-02h  1
 159 -2.6206346e-01 2.16e+00 6.84e+01  -7.5 2.11e+03    -  2.93e-01 1.61e-01h  1
iter    objective    inf_pr   inf_du lg(mu)  ||d||  lg(rg) alpha_du alpha_pr  ls
 160 -2.6206644e-01 1.32e+00 4.18e+01  -7.5 5.01e-01  -4.8 3.39e-01 3.88e-01h  1
 161 -2.6206571e-01 7.51e-01 1.13e+02  -7.5 2.33e-01  -4.4 5.36e-02 4.32e-01h  1
 162 -2.6206447e-01 5.83e-01 3.33e+01  -7.5 1.43e-01  -4.0 6.04e-01 2.23e-01h  1
 163 -2.6206416e-01 4.74e-01 5.60e+01  -7.5 2.28e-01  -4.4 9.67e-01 1.87e-01h  1
 164 -2.6206038e-01 1.07e-01 2.44e+01  -7.5 1.22e-01  -4.0 2.03e-01 7.74e-01h  1
 165 -2.6206067e-01 1.04e-01 1.40e+01  -7.5 2.50e-01  -4.5 1.00e+00 3.19e-02h  1
 166 -2.6206293e-01 7.83e-02 7.10e+00  -7.5 2.96e-01  -5.0 5.46e-01 2.47e-01h  1
 167 -2.6206371e-01 6.93e-02 3.10e+02  -7.5 3.65e-01  -4.5 1.00e+00 1.15e-01h  1
 168 -2.6206388e-01 6.75e-02 5.13e+02  -7.5 2.94e-01  -5.0 7.00e-03 2.55e-02h  1
 169 -2.6206399e-01 6.68e-02 4.13e+02  -7.5 7.23e-01  -5.5 6.84e-03 9.83e-03h  1
iter    objective    inf_pr   inf_du lg(mu)  ||d||  lg(rg) alpha_du alpha_pr  ls
 170 -2.6206394e-01 6.12e-02 1.95e+02  -7.5 1.06e-02  -1.4 3.28e-01 8.42e-02h  1
 171 -2.6206353e-01 4.30e-02 1.77e+01  -7.5 1.12e-02  -1.9 6.49e-01 2.98e-01h  1
 172 -2.6206352e-01 4.29e-02 2.69e+01  -7.5 6.29e-02  -1.5 5.63e-02 1.52e-03h  1
 173 -2.6206253e-01 2.32e-06 4.11e+01  -7.5 9.99e-03  -2.0 4.56e-01 1.00e+00h  1
 174 -2.6206256e-01 1.13e-07 4.06e-02  -7.5 2.54e-03  -2.5 1.00e+00 1.00e+00h  1
 175 -2.6206279e-01 7.38e-07 3.94e-04  -7.5 7.52e-03  -2.9 1.00e+00 1.00e+00h  1
 176 -2.6206331e-01 7.22e-07 5.95e-01  -7.5 2.02e-02  -3.4 1.00e+00 5.79e-01H  1
 177 -2.6206366e-01 4.24e-06 4.04e-02  -7.5 2.25e-02  -3.9 1.00e+00 1.00e+00f  1
 178 -2.6206494e-01 2.58e-05 4.21e-02  -7.5 6.57e-02  -4.4 1.00e+00 9.06e-01h  1
 179 -2.6206863e-01 2.56e-04 4.54e-03  -7.5 1.90e-01  -4.8 1.00e+00 1.00e+00f  1
iter    objective    inf_pr   inf_du lg(mu)  ||d||  lg(rg) alpha_du alpha_pr  ls
 180 -2.6207265e-01 5.78e-04 3.72e-01  -7.5 5.01e-01  -5.3 1.00e+00 4.46e-01h  1
 181 -2.6207669e-01 5.88e-04 9.37e-01  -7.5 1.12e+00  -5.8 1.00e+00 2.13e-01f  1
 182 -2.6208065e-01 6.24e-04 1.97e+00  -7.5 2.02e+00  -6.3 1.00e+00 1.33e-01f  1
 183 -2.6210118e-01 4.59e-04 1.40e+00  -7.5 6.68e+00  -6.7 1.00e+00 5.89e-01f  1
 184 -2.6216257e-01 8.47e-03 1.09e+00  -7.5 2.03e+01  -7.2 1.00e+00 8.37e-01f  1
 185 -2.6231845e-01 9.56e-02 2.54e-01  -7.5 5.74e+01  -7.7 1.00e+00 1.00e+00f  1
 186 -2.6243494e-01 1.25e-01 4.59e-01  -7.5 1.45e+02  -8.2 6.23e-01 3.48e-01h  1
 187 -2.6254077e-01 5.61e-01 4.73e-01  -7.5 4.75e+03    -  3.55e-03 3.18e-02h  1
 188 -2.6254641e-01 5.53e-01 2.63e+00  -7.5 2.13e+02  -8.7 1.00e+00 1.33e-02h  1
 189 -2.6271168e-01 1.51e+00 2.40e+00  -7.5 2.24e+03    -  5.35e-02 1.86e-01h  1
iter    objective    inf_pr   inf_du lg(mu)  ||d||  lg(rg) alpha_du alpha_pr  ls
 190 -2.6285098e-01 2.02e+00 1.62e+00  -7.5 1.89e+03    -  3.41e-01 3.09e-01h  1
 191 -2.6289538e-01 2.20e+00 1.24e+00  -7.5 1.80e+03    -  9.86e-01 3.37e-01h  1
 192 -2.6293571e-01 2.07e+00 5.87e-01  -7.5 1.50e+03    -  6.26e-01 4.89e-01h  1
 193 -2.6296200e-01 1.54e+00 4.45e-01  -7.5 1.05e+03    -  4.37e-01 1.00e+00h  1
 194 -2.6296186e-01 1.61e-01 1.80e-01  -7.5 3.36e+02    -  1.00e+00 1.00e+00h  1
 195 -2.6297089e-01 3.56e-01 6.62e-01  -7.5 5.33e+02    -  8.22e-01 6.62e-01h  1
 196 -2.6297482e-01 3.31e-01 9.73e-01  -7.5 1.45e+02    -  7.31e-01 7.12e-02h  1
 197 -2.6300548e-01 9.86e-01 9.48e-01  -7.5 4.70e+02    -  1.98e-01 8.52e-01f  1
 198 -2.6300243e-01 4.57e-01 6.96e-01  -7.5 1.88e+02    -  2.26e-01 1.00e+00H  1
 199 -2.6300269e-01 4.16e-05 1.69e-04  -7.5 1.00e+00  -9.1 1.00e+00 1.00e+00h  1
iter    objective    inf_pr   inf_du lg(mu)  ||d||  lg(rg) alpha_du alpha_pr  ls
 200 -2.6300274e-01 8.99e-02 1.38e-04  -7.5 2.94e+01    -  1.00e+00 1.00e+00h  1
 201 -2.6300273e-01 2.51e-05 2.73e-08  -7.5 4.88e-01    -  1.00e+00 1.00e+00h  1
 202 -2.6300273e-01 5.75e-08 9.37e-11  -7.5 2.42e-02    -  1.00e+00 1.00e+00h  1
 203 -2.6300454e-01 2.17e-03 3.64e+00  -9.0 2.45e+02    -  4.73e-01 7.79e-02h  1
In iteration 203, 1 Slack too small, adjusting variable bound
 204 -2.6300522e-01 2.71e-04 4.65e-01  -9.0 3.65e-03  -1.3 8.78e-01 8.75e-01h  1
 205 -2.6300533e-01 2.14e-05 7.93e-02  -9.0 3.74e-04  -1.8 9.93e-01 9.21e-01h  1
 206 -2.6300536e-01 6.68e-06 1.02e-01  -9.0 8.91e-04  -2.2 1.00e+00 6.87e-01f  1
 207 -2.6300542e-01 2.35e-06 1.40e-02  -9.0 1.99e-03  -2.7 1.00e+00 6.49e-01f  1
 208 -2.6300553e-01 9.22e-07 1.07e-02  -9.0 5.65e-03  -3.2 1.00e+00 6.07e-01f  1
 209 -2.6300565e-01 6.84e-07 1.76e-02  -9.0 1.46e-02  -3.7 6.31e-01 2.58e-01f  1
iter    objective    inf_pr   inf_du lg(mu)  ||d||  lg(rg) alpha_du alpha_pr  ls
 210 -2.6300578e-01 9.16e-08 4.25e-03  -9.0 5.03e-03  -3.2 1.00e+00 8.66e-01f  1
 211 -2.6300585e-01 1.13e-07 2.27e-02  -9.0 1.50e-02  -3.7 1.00e+00 2.21e-01f  1
 212 -2.6300591e-01 1.67e-07 5.47e-02  -9.0 1.94e-02  -4.2 1.00e+00 2.15e-01f  1
 213 -2.6300599e-01 1.98e-07 4.56e-02  -9.0 3.55e-02  -4.7 1.00e+00 5.21e-01f  1
 214 -2.6300694e-01 3.11e-02 1.73e-01  -9.0 6.46e+03    -  3.48e-01 8.02e-03f  1
 215 -2.6300696e-01 5.70e-03 8.14e-03  -9.0 5.98e-02  -4.3 1.00e+00 8.17e-01h  1
 216 -2.6300718e-01 1.17e-01 4.18e-02  -9.0 1.84e+03    -  9.74e-01 5.36e-02h  1
 217 -2.6300718e-01 9.42e-02 4.29e-02  -9.0 4.99e+00  -4.7 4.35e-01 1.98e-01h  1
 218 -2.6300718e-01 9.42e-02 4.29e-02  -9.0 2.91e+02    -  2.35e-07 5.06e-07h  2
 219 -2.6300718e-01 9.42e-02 2.94e-02  -9.0 1.34e+01  -2.5 2.49e-04 3.79e-05h  1
iter    objective    inf_pr   inf_du lg(mu)  ||d||  lg(rg) alpha_du alpha_pr  ls
 220 -2.6300718e-01 9.42e-02 4.10e-02  -9.0 1.74e+02    -  1.00e+00 4.88e-05h  1
 221 -2.6300882e-01 1.82e-01 9.96e-02  -9.0 2.09e+02    -  9.84e-02 7.23e-01f  1
 222 -2.6300877e-01 1.65e-01 9.57e-02  -9.0 1.12e-01  -3.0 1.39e-02 9.60e-02h  1
 223 -2.6300823e-01 1.21e-06 1.15e-01  -9.0 1.01e-01  -3.5 5.54e-01 1.00e+00h  1
 224 -2.6300823e-01 5.91e-09 1.88e-03  -9.0 1.40e-03  -3.9 1.00e+00 1.00e+00h  1
 225 -2.6300830e-01 5.75e-03 1.85e-02  -9.0 4.75e+01    -  1.00e+00 2.54e-01h  1
 226 -2.6300829e-01 4.61e-09 3.00e-03  -9.0 5.77e-03  -4.4 1.00e+00 1.00e+00h  1
 227 -2.6300837e-01 7.14e-03 2.46e-02  -9.0 3.44e+01    -  8.89e-01 1.00e+00h  1
 228 -2.6300834e-01 7.28e-09 2.24e-03  -9.0 7.16e-03  -4.9 1.00e+00 1.00e+00h  1
 229 -2.6300834e-01 9.16e-03 8.96e-02  -9.0 9.26e+00    -  8.53e-01 1.00e+00h  1
iter    objective    inf_pr   inf_du lg(mu)  ||d||  lg(rg) alpha_du alpha_pr  ls
 230 -2.6300835e-01 2.27e-02 1.88e-01  -9.0 1.19e+01    -  1.00e+00 1.00e+00h  1
 231 -2.6300835e-01 6.47e-07 4.98e-03  -9.0 5.18e-02    -  1.00e+00 1.00e+00h  1
 232 -2.6300835e-01 2.81e-09 3.67e-05  -9.0 1.43e-03    -  1.00e+00 1.00e+00h  1
 233 -2.6300835e-01 1.89e-10 8.87e-08  -9.0 2.77e-05    -  1.00e+00 1.00e+00h  1
 234 -2.6300835e-01 1.89e-10 1.52e-14  -9.0 3.99e-09    -  1.00e+00 1.00e+00h  1

Number of Iterations....: 234

                                   (scaled)                 (unscaled)
Objective...............:  -2.6300834520366118e-01   -2.6300834520366118e-01
Dual infeasibility......:   1.5182299861749016e-14    1.5182299861749016e-14
Constraint violation....:   1.8905885526814686e-10    1.8905885526814686e-10
Complementarity.........:   9.0909091637810880e-10    9.0909091637810880e-10
Overall NLP error.......:   9.0909091637810880e-10    9.0909091637810880e-10


Number of objective function evaluations             = 308
Number of objective gradient evaluations             = 235
Number of equality constraint evaluations            = 308
Number of inequality constraint evaluations          = 309
Number of equality constraint Jacobian evaluations   = 237
Number of inequality constraint Jacobian evaluations = 237
Number of Lagrangian Hessian evaluations             = 234
Total CPU secs in IPOPT (w/o function evaluations)   =    536.015
Total CPU secs in NLP function evaluations           =      7.840

EXIT: Optimal Solution Found.
